(set-info :smt-lib-version 2.6)
(set-logic QF_UFLRA)
(set-info :source |
MathSat group

|)
(set-info :category "random")
(set-info :status unsat)
(declare-fun f0_1 (Real) Real)
(declare-fun f0_2 (Real Real) Real)
(declare-fun f0_3 (Real Real Real) Real)
(declare-fun f0_4 (Real Real Real Real) Real)
(declare-fun f1_1 (Real) Real)
(declare-fun f1_2 (Real Real) Real)
(declare-fun f1_3 (Real Real Real) Real)
(declare-fun f1_4 (Real Real Real Real) Real)
(declare-fun x0 () Real)
(declare-fun x1 () Real)
(declare-fun x2 () Real)
(declare-fun x3 () Real)
(declare-fun x4 () Real)
(declare-fun x5 () Real)
(declare-fun x6 () Real)
(declare-fun x7 () Real)
(declare-fun x8 () Real)
(declare-fun x9 () Real)
(declare-fun P0 () Bool)
(declare-fun P1 () Bool)
(declare-fun P2 () Bool)
(declare-fun P3 () Bool)
(declare-fun P4 () Bool)
(declare-fun P5 () Bool)
(declare-fun P6 () Bool)
(declare-fun P7 () Bool)
(declare-fun P8 () Bool)
(declare-fun P9 () Bool)
(assert (let ((?v_7 (f1_1 x2)) (?v_8 (f1_2 x8 x9)) (?v_5 (f0_1 x8)) (?v_4 (f1_1 x7)) (?v_16 (f1_2 x9 x4)) (?v_23 (f1_2 x7 x1))) (let ((?v_0 (f0_1 ?v_16)) (?v_54 (f0_2 x9 x1)) (?v_15 (f0_2 x1 x0)) (?v_38 (f0_1 ?v_7)) (?v_1 (f0_2 x0 x2)) (?v_13 (* 25 x4)) (?v_61 (f1_1 x8)) (?v_18 (f1_2 x0 x3))) (let ((?v_30 (f1_1 ?v_18)) (?v_39 (< x1 24)) (?v_17 (< ?v_5 28)) (?v_99 (< ?v_38 9)) (?v_41 (= (f0_1 x5) (f0_2 x1 x9))) (?v_11 (< ?v_0 22))) (let ((?v_87 (= (- (- (* 9 ?v_30) (* 15 (+ (- (* 19 x0) (* 26 x5)) (* 13 x4)))) (* 10 ?v_18)) ?v_54)) (?v_57 (< ?v_15 22)) (?v_6 (= ?v_1 (f1_2 (f1_1 ?v_4) ?v_18))) (?v_88 (< x0 21)) (?v_52 (= ?v_15 ?v_8)) (?v_25 (= ?v_1 ?v_7)) (?v_121 (= x0 x4)) (?v_63 (< ?v_7 26)) (?v_60 (< ?v_5 8)) (?v_14 (= ?v_8 ?v_7)) (?v_20 (< ?v_16 9)) (?v_72 (< ?v_23 16)) (?v_29 (< ?v_4 9)) (?v_127 (< ?v_61 16)) (?v_85 (< ?v_61 0)) (?v_77 (< ?v_18 7)) (?v_75 (< x6 9)) (?v_65 (< ?v_7 18)) (?v_80 (not P1)) (?v_79 (not ?v_11))) (let ((?v_58 (not ?v_60)) (?v_97 (not P3)) (?v_27 (not ?v_63)) (?v_55 (not ?v_17)) (?v_12 (not ?v_6)) (?v_10 (not ?v_14)) (?v_28 (not ?v_52)) (?v_71 (not ?v_39)) (?v_114 (not ?v_127)) (?v_105 (not ?v_65)) (?v_82 (not ?v_88)) (?v_32 (not ?v_20)) (?v_73 (not P4)) (?v_67 (not ?v_25)) (?v_83 (not ?v_99)) (?v_64 (not ?v_29)) (?v_81 (not P7)) (?v_102 (not P0)) (?v_70 (not P2)) (?v_122 (not ?v_87)) (?v_106 (not ?v_121)) (?v_94 (not P5)) (?v_84 (not ?v_72)) (?v_104 (not ?v_75)) (?v_78 (not P8)) (?v_89 (not ?v_77)) (?v_86 (not P6)) (?v_100 (not ?v_85)) (?v_124 (not P9)) (?v_107 (not ?v_57)) (?v_115 (not ?v_41)) (?v_9 (- (+ (* 28 x2) (* 12 x1)) x5))) (let ((?v_34 (= ?v_9 ?v_9))) (let ((?v_43 (not ?v_34)) (?v_62 (f0_1 ?v_9))) (let ((?v_42 (= ?v_23 (f1_2 ?v_62 x2))) (?v_19 (< (+ (* 2 x2) ?v_13 (* 5 x0)) 22)) (?v_93 (< ?v_62 13))) (let ((?v_76 (not ?v_93))) (let ((?v_129 (or ?v_76 ?v_78)) (?v_110 (not ?v_42)) (?v_123 (< ?v_9 24))) (let ((?v_112 (not ?v_123)) (?v_120 (< ?v_0 (- 16)))) (let ((?v_96 (not ?v_120)) (?v_3 (+ (- (* (- 2) x8) (* 20 x4)) (* 15 x3)))) (let ((?v_26 (< ?v_3 1))) (let ((?v_21 (not ?v_26)) (?v_36 (< ?v_1 (- 8))) (?v_2 (< ?v_0 (- 3)))) (let ((?v_22 (not ?v_2))) (let ((?v_98 (or ?v_22 ?v_2)) (?v_53 (< ?v_3 (- 2)))) (let ((?v_74 (not ?v_53)) (?v_59 (< ?v_5 (- 13)))) (let ((?v_108 (or ?v_59 ?v_12)) (?v_40 (< x5 (- 12))) (?v_91 (< (f1_1 x6) (- 11)))) (let ((?v_66 (not ?v_91)) (?v_31 (+ (* 18 (f0_1 x3)) ?v_13 (* 13 ?v_3)))) (let ((?v_56 (< ?v_31 20))) (let ((?v_68 (not ?v_56)) (?v_24 (< ?v_30 (- 23))) (?v_44 (< (f1_1 ?v_7) (- 1)))) (let ((?v_46 (not ?v_44)) (?v_37 (not ?v_24)) (?v_35 (< x4 (- 28)))) (let ((?v_113 (not ?v_35)) (?v_50 (< ?v_15 (- 14))) (?v_119 (< ?v_30 (- 8)))) (let ((?v_117 (not ?v_119)) (?v_33 (< ?v_4 (- 6))) (?v_48 (= ?v_31 ?v_7))) (let ((?v_90 (not ?v_33)) (?v_49 (< ?v_7 (- 4)))) (let ((?v_47 (not ?v_49)) (?v_45 (= (+ (* 15 x2) (* 20 ?v_8) (* 3 ?v_3)) ?v_54)) (?v_103 (< ?v_38 (- 20)))) (let ((?v_51 (not ?v_103)) (?v_118 (not ?v_48)) (?v_126 (not ?v_45))) (let ((?v_116 (or ?v_126 ?v_56)) (?v_92 (= (f1_1 x9) (- (- (* (- 8) x1) (* 17 x2)) (* 21 x5))))) (let ((?v_69 (not ?v_92)) (?v_109 (not ?v_50)) (?v_128 (< ?v_23 (- 13)))) (let ((?v_101 (not ?v_128)) (?v_95 (not ?v_40)) (?v_111 (not ?v_36)) (?v_125 (not ?v_59))) (and (and (and (and (and (and (and (and (and (and (and (and (and (and (and (and (and (and (and (and (and (and (and (and (and (and (and (and (and (and (and (and (and (and (and (and (and (and (and (and (and (and (and (and (and (and (and (and (and (and (and (and (and (and (and (and (and (and (and (and (and (and (and (and (and (and (and (and (and (and (and (and (and (and (and (and (and (and (and (and (and (and (and (and (and (and (and (and (and (and (and (and (and (and (and (and (and (and (and (and (and (and (and (and (and (and (and (and (and (and (and (and (and (and (and (and (and (and (and (and (and (and (and (and (and (and (and (and (and (and (and (and (and (and (and (and (and (and (and (and (and (and (and (and (and (and (and (and (and (and (and (and (and (and (and (and (and (and (and (and (and (and (and (and (and (and (and (and (and (and (and (and (and (and (and (and (and (and (and (and (and (and (and (and (and (and (and (and (and (and (and (and (and (and (and (and (and (and (and (and (and (and (and (and (and (and (and (and (and (and (and (and (and (and (and (and (and (and (and (and (and (and (and (and (and (and (and (and (and (and (and (and (and (and (and (and (and (and (and (and (and (and (and (and (and (and (and (and (and (and (and (and (and (and (and (and (and (and (and (and (and (and (and (and (and (and (and (and (and (and (and (and (and (and (and (and (and (and (and (and (and (and (and (and (and (and (and (and (and (and (and (and (and (and (and (and (and (and (and (or (or ?v_96 ?v_21) ?v_80) (or (or ?v_79 ?v_58) ?v_75)) (or (or ?v_36 ?v_97) ?v_6)) (or ?v_98 ?v_74)) (or (or ?v_27 ?v_29) ?v_55)) (or ?v_108 ?v_10)) (or (or ?v_28 P2) ?v_40)) (or (or ?v_43 ?v_10) ?v_71)) (or (or ?v_42 ?v_11) (not ?v_19))) (or (or ?v_114 P9) ?v_105)) (or (or ?v_12 ?v_66) ?v_68)) (or (or ?v_14 ?v_57) ?v_20)) (or (or P5 ?v_17) ?v_24)) (or (or ?v_82 ?v_19) ?v_32)) (or (or ?v_46 ?v_25) ?v_21)) (or (or ?v_22 ?v_72) ?v_73)) (or (or ?v_37 ?v_67) ?v_113)) (or (or ?v_50 P7) ?v_83)) (or (or ?v_77 ?v_26) ?v_27)) (or (or ?v_28 ?v_64) ?v_117)) (or (or ?v_10 ?v_6) ?v_33)) (or (or ?v_81 ?v_48) ?v_32)) (or (or ?v_102 ?v_12) ?v_90)) (or (or ?v_41 P9) ?v_34)) (or (or ?v_47 ?v_32) ?v_45)) (or (or ?v_32 ?v_35) ?v_36)) (or (or ?v_37 ?v_51) ?v_28)) (or (or ?v_39 ?v_17) ?v_40)) (or (or ?v_41 ?v_70) ?v_21)) (or (or ?v_42 ?v_43) ?v_44)) (or (or ?v_21 ?v_45) ?v_46)) (or (or P2 ?v_47) ?v_118)) (or (or ?v_49 ?v_11) ?v_34)) (or (or P3 ?v_50) ?v_51)) (or (or ?v_43 ?v_52) ?v_53)) (or (or ?v_122 ?v_55) ?v_44)) (or ?v_116 ?v_57)) (or (or ?v_58 ?v_34) ?v_106)) (or (or ?v_21 ?v_59) ?v_60)) (or (or ?v_85 ?v_76) ?v_26)) (or (or ?v_69 P5) ?v_63)) (or (or ?v_109 ?v_64) ?v_25)) (or (or ?v_65 ?v_48) ?v_66)) (or (or ?v_101 ?v_19) ?v_67)) (or (or ?v_25 ?v_68) ?v_94)) (or (or P6 ?v_69) ?v_70)) (or (or ?v_71 ?v_71) ?v_11)) (or (or ?v_84 ?v_73) ?v_74)) (or (or ?v_2 ?v_55) ?v_104)) (or ?v_129 ?v_89)) (or (or ?v_40 ?v_86) P1)) (or (or ?v_67 ?v_58) ?v_78)) (or (or ?v_79 ?v_78) ?v_34)) (or (or ?v_19 ?v_80) ?v_49)) (or (or ?v_81 ?v_95) ?v_55)) (or (or ?v_78 ?v_41) ?v_34)) (or (or ?v_57 ?v_82) ?v_63)) (or (or ?v_37 ?v_83) ?v_68)) (or (or ?v_17 ?v_40) ?v_84)) (or (or ?v_20 P3) ?v_21)) (or (or ?v_48 ?v_11) ?v_17)) (or (or ?v_52 ?v_36) ?v_84)) (or (or ?v_69 ?v_14) ?v_21)) (or (or ?v_74 ?v_58) ?v_78)) (or (or ?v_85 ?v_86) P2)) (or (or ?v_87 ?v_88) ?v_10)) (or (or ?v_28 ?v_20) ?v_84)) (or (or ?v_6 ?v_60) ?v_27)) (or (or ?v_75 ?v_89) ?v_39)) (or (or ?v_85 ?v_60) ?v_90)) (or (or ?v_91 ?v_88) ?v_65)) (or (or ?v_45 ?v_34) ?v_12)) (or (or ?v_92 ?v_93) ?v_67)) (or (or ?v_75 ?v_14) ?v_78)) (or (or ?v_2 ?v_94) ?v_95)) (or (or ?v_111 ?v_86) ?v_43)) (or (or ?v_55 ?v_100) ?v_24)) (or (or ?v_73 ?v_58) ?v_21)) (or (or P7 P9) ?v_96)) (or (or ?v_60 ?v_11) P0)) (or (or P5 ?v_97) ?v_82)) (or (or ?v_63 ?v_2) P5)) (or (or ?v_79 ?v_82) P2)) (or ?v_98 ?v_19)) (or (or ?v_39 ?v_99) ?v_125)) (or (or ?v_100 ?v_51) P4)) (or (or P1 ?v_60) ?v_69)) (or (or ?v_88 ?v_51) ?v_101)) (or (or ?v_59 ?v_11) ?v_20)) (or (or ?v_69 ?v_91) P7)) (or (or P9 ?v_124) ?v_67)) (or (or ?v_102 ?v_43) ?v_107)) (or (or ?v_57 ?v_83) ?v_102)) (or (or ?v_14 ?v_2) ?v_52)) (or (or ?v_44 ?v_68) ?v_103)) (or (or ?v_39 P8) ?v_110)) (or (or ?v_73 ?v_104) ?v_17)) (or (or ?v_105 ?v_12) ?v_112)) (or (or ?v_92 P1) ?v_106)) (or (or ?v_107 ?v_85) ?v_17)) (or (or ?v_82 P9) ?v_80)) (or (or P8 P1) ?v_11)) (or (or ?v_79 ?v_36) ?v_80)) (or ?v_108 ?v_109)) (or (or ?v_19 ?v_99) ?v_10)) (or (or ?v_83 ?v_89) P2)) (or (or ?v_101 ?v_68) ?v_110)) (or (or ?v_73 ?v_85) ?v_6)) (or (or P5 ?v_47) ?v_36)) (or (or ?v_115 ?v_87) ?v_58)) (or (or ?v_26 ?v_75) ?v_101)) (or (or ?v_35 ?v_106) ?v_55)) (or (or ?v_66 ?v_109) P4)) (or (or ?v_70 ?v_111) ?v_59)) (or (or ?v_19 ?v_55) ?v_33)) (or (or ?v_81 ?v_58) ?v_71)) (or (or ?v_112 P4) ?v_35)) (or (or ?v_88 ?v_2) ?v_107)) (or (or ?v_97 ?v_55) ?v_57)) (or (or ?v_77 P9) ?v_10)) (or (or ?v_113 ?v_42) ?v_92)) (or (or ?v_65 ?v_79) ?v_114)) (or (or ?v_79 ?v_41) ?v_97)) (or (or ?v_115 ?v_65) ?v_109)) (or (or ?v_32 ?v_71) ?v_26)) (or (or ?v_22 P8) ?v_90)) (or ?v_116 ?v_43)) (or (or ?v_59 ?v_77) ?v_58)) (or (or ?v_37 ?v_117) ?v_118)) (or (or ?v_81 ?v_115) ?v_47)) (or (or ?v_70 ?v_112) ?v_27)) (or (or ?v_45 ?v_76) ?v_73)) (or (or ?v_56 ?v_24) ?v_33)) (or (or ?v_59 ?v_90) ?v_93)) (or (or P4 ?v_94) ?v_107)) (or (or ?v_97 ?v_91) ?v_20)) (or (or ?v_49 ?v_56) ?v_34)) (or (or ?v_28 ?v_55) P0)) (or (or ?v_75 ?v_119) P8)) (or (or ?v_19 P7) ?v_44)) (or (or ?v_73 ?v_45) ?v_67)) (or (or ?v_28 ?v_96) ?v_64)) (or (or ?v_120 ?v_74) ?v_37)) (or (or P7 ?v_34) ?v_109)) (or (or ?v_111 ?v_121) ?v_84)) (or (or ?v_88 ?v_74) ?v_120)) (or (or ?v_45 ?v_44) ?v_53)) (or (or ?v_122 ?v_10) ?v_106)) (or (or ?v_33 ?v_59) P4)) (or (or ?v_114 ?v_48) ?v_26)) (or (or ?v_119 ?v_57) ?v_89)) (or (or ?v_39 ?v_122) ?v_110)) (or (or ?v_33 ?v_111) ?v_121)) (or ?v_108 ?v_114)) (or (or ?v_64 ?v_37) ?v_42)) (or (or ?v_104 ?v_76) ?v_51)) (or (or ?v_72 P5) ?v_59)) (or (or ?v_87 ?v_120) ?v_57)) (or (or ?v_121 ?v_121) ?v_20)) (or (or ?v_123 ?v_90) ?v_17)) (or (or ?v_60 ?v_110) ?v_104)) (or (or ?v_123 ?v_114) ?v_52)) (or (or ?v_70 ?v_39) ?v_19)) (or (or ?v_21 ?v_48) ?v_19)) (or (or ?v_93 ?v_14) ?v_49)) (or (or ?v_71 ?v_43) ?v_76)) (or (or ?v_118 ?v_91) ?v_94)) (or (or ?v_88 ?v_19) ?v_69)) (or (or ?v_90 ?v_70) ?v_118)) (or (or ?v_99 ?v_85) ?v_107)) (or (or ?v_102 ?v_105) ?v_47)) (or (or ?v_27 ?v_113) ?v_73)) (or (or P3 ?v_21) ?v_110)) (or (or ?v_83 ?v_81) ?v_104)) (or (or ?v_28 ?v_90) P8)) (or (or ?v_95 ?v_83) ?v_110)) (or (or ?v_55 ?v_124) ?v_75)) (or (or ?v_74 ?v_25) ?v_87)) (or (or ?v_32 ?v_25) ?v_26)) (or (or ?v_46 ?v_118) ?v_100)) (or (or ?v_11 ?v_63) ?v_22)) (or (or ?v_41 ?v_46) ?v_95)) (or (or ?v_55 P3) ?v_115)) (or (or ?v_50 ?v_69) ?v_115)) (or (or ?v_77 ?v_93) ?v_58)) (or (or ?v_103 ?v_10) ?v_50)) (or (or ?v_125 ?v_22) ?v_35)) (or (or P9 ?v_34) ?v_104)) (or (or ?v_126 ?v_48) ?v_73)) (or (or ?v_72 ?v_103) P3)) (or (or P6 ?v_90) ?v_71)) (or (or ?v_45 ?v_119) ?v_36)) (or (or ?v_82 ?v_100) ?v_58)) (or (or ?v_49 ?v_110) ?v_37)) (or (or ?v_79 ?v_64) ?v_100)) (or (or ?v_36 P5) ?v_125)) (or (or P3 ?v_76) ?v_121)) (or (or ?v_83 ?v_22) P5)) (or (or ?v_26 ?v_34) ?v_65)) (or (or ?v_29 ?v_97) ?v_105)) (or (or ?v_125 ?v_95) ?v_97)) (or (or ?v_127 ?v_65) ?v_126)) (or (or P2 ?v_85) P5)) (or (or ?v_12 ?v_77) ?v_85)) (or (or ?v_45 ?v_25) ?v_42)) (or (or ?v_107 ?v_36) ?v_83)) (or (or ?v_80 ?v_107) ?v_58)) (or (or ?v_20 ?v_50) ?v_75)) (or (or ?v_128 ?v_58) ?v_105)) (or (or ?v_44 ?v_65) ?v_51)) (or (or ?v_91 ?v_37) ?v_122)) (or (or ?v_39 ?v_58) ?v_111)) (or (or ?v_85 ?v_109) ?v_19)) (or (or ?v_55 ?v_46) ?v_52)) (or (or ?v_127 ?v_100) ?v_34)) (or (or ?v_118 ?v_73) ?v_2)) (or (or ?v_118 ?v_100) ?v_101)) (or (or ?v_34 ?v_40) ?v_77)) (or (or ?v_68 ?v_26) ?v_93)) (or (or ?v_14 ?v_33) ?v_43)) (or (or ?v_80 ?v_50) ?v_24)) (or (or ?v_124 ?v_27) ?v_69)) (or (or ?v_59 ?v_119) ?v_126)) (or (or P4 ?v_55) P3)) (or (or ?v_42 ?v_111) ?v_67)) (or (or P6 ?v_47) ?v_34)) (or (or ?v_90 P2) ?v_55)) (or (or ?v_33 ?v_114) ?v_34)) (or (or ?v_42 ?v_123) ?v_58)) (or (or ?v_40 ?v_76) ?v_32)) (or (or ?v_68 ?v_103) ?v_122)) (or (or ?v_105 ?v_103) ?v_69)) (or (or ?v_26 ?v_101) ?v_90)) (or (or ?v_81 ?v_12) ?v_27)) (or (or ?v_102 ?v_124) P2)) (or (or ?v_43 ?v_55) ?v_78)) (or (or ?v_84 ?v_91) ?v_100)) (or (or ?v_77 ?v_35) ?v_91)) (or (or ?v_21 ?v_118) ?v_94)) (or (or ?v_27 ?v_41) ?v_104)) (or (or ?v_111 ?v_72) ?v_55)) (or (or ?v_82 ?v_107) P9)) (or (or ?v_112 ?v_82) ?v_59)) (or (or ?v_90 ?v_103) ?v_49)) (or (or ?v_100 P6) ?v_120)) (or (or ?v_56 ?v_65) ?v_20)) (or (or ?v_103 ?v_123) ?v_89)) (or (or ?v_70 ?v_17) ?v_12)) (or (or ?v_45 ?v_111) ?v_128)) (or (or ?v_72 ?v_57) ?v_40)) (or (or ?v_95 ?v_45) ?v_34)) (or (or ?v_121 ?v_64) ?v_95)) (or (or ?v_102 ?v_110) ?v_126)) (or (or ?v_71 ?v_115) ?v_121)) (or (or ?v_53 ?v_124) ?v_101)) (or (or ?v_49 ?v_69) ?v_126)) (or (or ?v_45 ?v_21) ?v_99)) (or (or ?v_21 P2) ?v_11)) (or (or ?v_20 ?v_40) ?v_110)) (or (or ?v_52 ?v_78) ?v_27)) (or (or ?v_39 ?v_110) P1)) (or (or ?v_33 ?v_26) ?v_67)) (or (or ?v_127 ?v_11) ?v_32)) (or (or ?v_55 ?v_71) ?v_86)) (or ?v_129 P5)) (or (or ?v_75 ?v_112) ?v_97)) (or (or ?v_24 P7) ?v_88)) (or (or ?v_33 ?v_91) ?v_115)) (or (or ?v_123 ?v_26) ?v_95)) (or (or P4 ?v_120) ?v_76)) (or (or ?v_42 ?v_28) ?v_107)) (or (or ?v_112 ?v_42) ?v_74)) (or (or ?v_109 ?v_75) ?v_14)) (or (or P7 ?v_20) P5)) (or (or ?v_94 ?v_105) ?v_47)) (or (or ?v_19 ?v_12) ?v_34)) (or (or ?v_55 ?v_101) ?v_126)) (or (or ?v_100 ?v_86) ?v_121)) (or (or ?v_104 ?v_71) ?v_115)) (or (or ?v_97 ?v_20) ?v_83)) (or (or ?v_120 ?v_89) ?v_76)) (or (or ?v_2 ?v_17) ?v_39)) (or (or ?v_35 ?v_77) ?v_88)) (or (or ?v_103 ?v_76) ?v_34)) (or (or ?v_25 P4) ?v_107)) (or (or P5 ?v_76) ?v_53)) (or (or ?v_112 ?v_127) ?v_115)) (or (or P7 ?v_78) ?v_68)) (or (or P5 ?v_72) ?v_6)) (or (or ?v_115 ?v_51) ?v_12)) (or (or ?v_113 ?v_59) ?v_29)) (or (or ?v_29 ?v_64) ?v_65)) (or (or ?v_32 ?v_81) ?v_78)) (or (or ?v_127 ?v_25) ?v_10)) (or (or ?v_50 ?v_33) ?v_82)) (or (or ?v_89 ?v_105) ?v_2)) (or (or ?v_56 ?v_68) ?v_55)) (or (or ?v_40 ?v_123) ?v_102)) (or (or ?v_92 ?v_68) ?v_122)) (or (or ?v_56 ?v_91) ?v_85)))))))))))))))))))))))))))))))))
(check-sat)
(exit)
